14° run output:
{
    "Function": "euclidB500.tsp",
    "Problem dimension": [
        325,
        344,
        141,
        155,
        38,
        89,
        226,
        191,
        240,
        210,
        178,
        469,
        376,
        102,
        135,
        185,
        277,
        8,
        264,
        322,
        347,
        395,
        434,
        276,
        119,
        201,
        310,
        97,
        330,
        251,
        63,
        466,
        144,
        374,
        260,
        458,
        457,
        476,
        48,
        161,
        246,
        375,
        314,
        66,
        333,
        284,
        181,
        222,
        297,
        409,
        416,
        83,
        421,
        189,
        215,
        358,
        192,
        175,
        200,
        489,
        169,
        162,
        81,
        100,
        493,
        262,
        223,
        473,
        17,
        293,
        394,
        220,
        198,
        435,
        452,
        321,
        266,
        18,
        497,
        59,
        274,
        351,
        396,
        101,
        91,
        448,
        32,
        433,
        43,
        218,
        256,
        362,
        129,
        54,
        235,
        439,
        125,
        72,
        449,
        302,
        491,
        352,
        272,
        307,
        399,
        103,
        372,
        332,
        85,
        357,
        349,
        12,
        13,
        429,
        255,
        10,
        265,
        117,
        323,
        70,
        69,
        15,
        156,
        258,
        243,
        209,
        282,
        145,
        397,
        30,
        151,
        484,
        384,
        147,
        495,
        121,
        283,
        494,
        285,
        326,
        165,
        199,
        227,
        425,
        112,
        35,
        5,
        232,
        412,
        438,
        62,
        393,
        460,
        131,
        44,
        6,
        341,
        245,
        346,
        123,
        430,
        45,
        443,
        279,
        110,
        336,
        136,
        382,
        400,
        390,
        188,
        148,
        142,
        108,
        194,
        320,
        252,
        454,
        299,
        359,
        308,
        288,
        94,
        370,
        163,
        9,
        75,
        368,
        427,
        303,
        50,
        492,
        237,
        106,
        128,
        485,
        170,
        356,
        477,
        471,
        331,
        411,
        25,
        499,
        173,
        184,
        379,
        76,
        426,
        407,
        206,
        187,
        248,
        338,
        313,
        204,
        176,
        153,
        415,
        360,
        271,
        391,
        257,
        52,
        453,
        158,
        90,
        405,
        31,
        414,
        41,
        51,
        114,
        440,
        479,
        126,
        354,
        157,
        120,
        16,
        7,
        88,
        387,
        40,
        408,
        177,
        23,
        2,
        124,
        263,
        174,
        406,
        195,
        228,
        64,
        58,
        93,
        224,
        316,
        385,
        172,
        300,
        392,
        403,
        470,
        24,
        464,
        146,
        465,
        11,
        249,
        115,
        348,
        57,
        329,
        143,
        225,
        49,
        335,
        80,
        305,
        350,
        4,
        159,
        179,
        445,
        398,
        230,
        388,
        475,
        79,
        37,
        71,
        319,
        294,
        345,
        419,
        99,
        60,
        410,
        14,
        327,
        420,
        242,
        67,
        92,
        212,
        168,
        270,
        461,
        363,
        267,
        259,
        116,
        478,
        239,
        87,
        496,
        334,
        132,
        190,
        444,
        337,
        369,
        247,
        20,
        122,
        53,
        164,
        105,
        74,
        404,
        150,
        61,
        480,
        27,
        364,
        183,
        216,
        130,
        29,
        137,
        182,
        286,
        118,
        133,
        98,
        378,
        107,
        482,
        490,
        312,
        138,
        377,
        365,
        298,
        167,
        26,
        217,
        244,
        140,
        315,
        467,
        219,
        28,
        234,
        498,
        233,
        371,
        278,
        417,
        304,
        472,
        77,
        214,
        311,
        292,
        0,
        111,
        355,
        401,
        366,
        268,
        68,
        455,
        180,
        73,
        474,
        86,
        193,
        290,
        203,
        275,
        418,
        250,
        3,
        343,
        339,
        33,
        373,
        281,
        236,
        205,
        413,
        483,
        437,
        197,
        154,
        95,
        166,
        442,
        1,
        254,
        487,
        386,
        328,
        468,
        422,
        160,
        78,
        486,
        481,
        34,
        381,
        96,
        104,
        306,
        436,
        280,
        289,
        241,
        221,
        488,
        428,
        463,
        42,
        287,
        340,
        238,
        21,
        127,
        380,
        296,
        202,
        462,
        451,
        361,
        39,
        383,
        450,
        139,
        317,
        253,
        211,
        19,
        447,
        134,
        459,
        22,
        261,
        36,
        446,
        402,
        273,
        269,
        424,
        367,
        109,
        291,
        113,
        318,
        431,
        456,
        229,
        208,
        342,
        55,
        149,
        65,
        171,
        309,
        47,
        56,
        231,
        46,
        82,
        213,
        353,
        186,
        423,
        152,
        196,
        207,
        84,
        324,
        389,
        295,
        432,
        441,
        301
    ],
    "Global Optimum": 0,
    "Algorithm": "Genetic algorithm",
    "Parameters": {
        "population": 30,
        "offspring": 30,
        "mutation probability": 0.002,
        "crossover probability": 0.9
    },
    "Fitness": 677139,
    "Solution": [
        325,
        344,
        141,
        155,
        38,
        89,
        226,
        191,
        240,
        210,
        178,
        469,
        376,
        102,
        135,
        185,
        277,
        8,
        264,
        322,
        347,
        395,
        434,
        276,
        119,
        201,
        310,
        97,
        330,
        251,
        63,
        466,
        144,
        374,
        260,
        458,
        457,
        476,
        48,
        161,
        246,
        375,
        314,
        66,
        333,
        284,
        181,
        222,
        297,
        409,
        416,
        83,
        421,
        189,
        215,
        358,
        192,
        175,
        200,
        489,
        169,
        162,
        81,
        100,
        493,
        262,
        223,
        473,
        17,
        293,
        394,
        220,
        198,
        435,
        452,
        321,
        266,
        18,
        497,
        59,
        274,
        351,
        396,
        101,
        91,
        448,
        32,
        433,
        43,
        218,
        256,
        362,
        129,
        54,
        235,
        439,
        125,
        72,
        449,
        302,
        491,
        352,
        272,
        307,
        399,
        103,
        372,
        332,
        85,
        357,
        349,
        12,
        13,
        429,
        255,
        10,
        265,
        117,
        323,
        70,
        69,
        15,
        156,
        258,
        243,
        209,
        282,
        145,
        397,
        30,
        151,
        484,
        384,
        147,
        495,
        121,
        283,
        494,
        285,
        326,
        165,
        199,
        227,
        425,
        112,
        35,
        5,
        232,
        412,
        438,
        62,
        393,
        460,
        131,
        44,
        6,
        341,
        245,
        346,
        123,
        430,
        45,
        443,
        279,
        110,
        336,
        136,
        382,
        400,
        390,
        188,
        148,
        142,
        108,
        194,
        320,
        252,
        454,
        299,
        359,
        308,
        288,
        94,
        370,
        163,
        9,
        75,
        368,
        427,
        303,
        50,
        492,
        237,
        106,
        128,
        485,
        170,
        356,
        477,
        471,
        331,
        411,
        25,
        499,
        173,
        184,
        379,
        76,
        426,
        407,
        206,
        187,
        248,
        338,
        313,
        204,
        176,
        153,
        415,
        360,
        271,
        391,
        257,
        52,
        453,
        158,
        90,
        405,
        31,
        414,
        41,
        51,
        114,
        440,
        479,
        126,
        354,
        157,
        120,
        16,
        7,
        88,
        387,
        40,
        408,
        177,
        23,
        2,
        124,
        263,
        174,
        406,
        195,
        228,
        64,
        58,
        93,
        224,
        316,
        385,
        172,
        300,
        392,
        403,
        470,
        24,
        464,
        146,
        465,
        11,
        249,
        115,
        348,
        57,
        329,
        143,
        225,
        49,
        335,
        80,
        305,
        350,
        4,
        159,
        179,
        445,
        398,
        230,
        388,
        475,
        79,
        37,
        71,
        319,
        294,
        345,
        419,
        99,
        60,
        410,
        14,
        327,
        420,
        242,
        67,
        92,
        212,
        168,
        270,
        461,
        363,
        267,
        259,
        116,
        478,
        239,
        87,
        496,
        334,
        132,
        190,
        444,
        337,
        369,
        247,
        20,
        122,
        53,
        164,
        105,
        74,
        404,
        150,
        61,
        480,
        27,
        364,
        183,
        216,
        130,
        29,
        137,
        182,
        286,
        118,
        133,
        98,
        378,
        107,
        482,
        490,
        312,
        138,
        377,
        365,
        298,
        167,
        26,
        217,
        244,
        140,
        315,
        467,
        219,
        28,
        234,
        498,
        233,
        371,
        278,
        417,
        304,
        472,
        77,
        214,
        311,
        292,
        0,
        111,
        355,
        401,
        366,
        268,
        68,
        455,
        180,
        73,
        474,
        86,
        193,
        290,
        203,
        275,
        418,
        250,
        3,
        343,
        339,
        33,
        373,
        281,
        236,
        205,
        413,
        483,
        437,
        197,
        154,
        95,
        166,
        442,
        1,
        254,
        487,
        386,
        328,
        468,
        422,
        160,
        78,
        486,
        481,
        34,
        381,
        96,
        104,
        306,
        436,
        280,
        289,
        241,
        221,
        488,
        428,
        463,
        42,
        287,
        340,
        238,
        21,
        127,
        380,
        296,
        202,
        462,
        451,
        361,
        39,
        383,
        450,
        139,
        317,
        253,
        211,
        19,
        447,
        134,
        459,
        22,
        261,
        36,
        446,
        402,
        273,
        269,
        424,
        367,
        109,
        291,
        113,
        318,
        431,
        456,
        229,
        208,
        342,
        55,
        149,
        65,
        171,
        309,
        47,
        56,
        231,
        46,
        82,
        213,
        353,
        186,
        423,
        152,
        196,
        207,
        84,
        324,
        389,
        295,
        432,
        441,
        301
    ],
    "Nb of functions evaluations": 50010,
    "Computational time in seconds": 364.780556678772,
    "Stopping criterion in evaluations": 50000
}